	178420.0	0.0
	178420.0	0.0


	178420.0	0.0


	182420.0	9000.0
	182420.0	9000.0


	171078.0	9000.0
	171078.0	9000.0
	184913.0	0.0


	162023.0	36000.0
	169810.0	30000.0
	171078.0	9000.0
	189072.0	0.0


	168766.0	18000.0
	193887.0	0.0


	182420.0	9000.0
	182420.0	9000.0


	141872.0	33000.0
	157430.0	24000.0
	182924.0	21000.0
	190588.0	0.0


	168659.0	12000.0
	174295.0	9000.0
	193887.0	0.0


	168659.0	12000.0
	168659.0	12000.0
	193887.0	0.0
	193887.0	0.0


